smt/acc-fold/bench/smt/append_sll_cll_slk-7.smt
(set-logic QF_S)

(declare-sort node 0)
(declare-fun val () (Field node int))
(declare-fun next () (Field node node))

(declare-fun lseg ((?in node) (?p node))
Space (tospace
(or
(= ?in ?p)
(exists ((?p_23 node)) (tobool (ssep (pto ?in (sref (ref val ?Anon_13) (ref next ?q) )) (lseg ?q ?p_23)))
)))

(declare-fun ll ((?in node))
Space (tospace
(or
(= ?in nil)
(and 
(tobool (ssep 
(pto ?in (sref (ref val ?Anon_12) (ref next ?q) ))
(ll ?q)
) )
))))

(declare-fun clist ((?in node))
Space (tospace
(exists ((?self_22 node)) (tobool (ssep (pto ?in (sref (ref val ?Anon_14) (ref next ?p) )) (lseg ?p ?self_22)))
))



















(declare-fun yprm () node)
(declare-fun y () node)
(declare-fun xprm () node)
(declare-fun x () node)
(declare-fun v_bool_20_1003prm () boolean)
(declare-fun Anon_1029 () int)
(declare-fun q_1030 () node)


(assert 
(and 
(distinct x nil)
(= y' y)
(= x' x)
(distinct q_1030 nil)
bvar(distinct q_1030 nil)
bvar(tobool (ssep 
(pto xprm (sref (ref val Anon_1029) (ref next q_1030) ))
(lseg q_1030 y')
emp
) )
)
)

(assert (not 
(exists ((y_54 node)(Anon_1050 TVar[878])(q_1051 TVar[879])) (tobool (lseg x y_54))

))

(check-sat)